4 
5  48 
6  03 18 37 44 52 59 
7  07 14 22 29 37 44 52 59 
8  07 14 22 29 37 44 52 59 
9  07 14 29 44 59 
10  14 29 44 59 
11  14 29 44 59 
12  14 29 44 
13  00 15 30 45 
14  00 15 30 45 
15  00 07 15 23 30 38 45 53 
16  00 08 15 23 30 38 45 53 
17  00 08 15 23 30 38 45 53 
18  00 08 15 23 30 37 45 
19  00 14 29 44 59 
20  14 29 44 56 
21  11 26 41 56 
22  11 26 39 54 
23  10 25 
0 
